projet_m2_wvcp/original_wvcp_dzn/r02.clq.dzn
cliques=[{89,17,115,36,57,134,6,47,0,66,79},{20,60,107,82,126,40,101,118,50,1,10},{2,69,102,61,51,29,91,108,119,137},{3,103,128,71,138,83,92,30,63,41},{84,110,12,42,4,72,129},{23,94,111,13,64,74,32,5,131,53},{89,17,115,36,57,134,6,47,0,66,79},{12,9,8,15,11,7,13,6,14,10},{106,18,81,8,48,38,27,58,136,99,67,116},{39,125,59,19,9,49,100,90,117,28,68},{20,60,107,82,126,40,101,118,50,1,10},{12,9,8,15,11,7,13,6,14,10},{12,9,8,15,11,7,13,6,14,10},{12,9,8,15,11,7,13,6,14,10},{12,9,8,15,11,7,13,6,14,10},{55,87,140,15,96,76,113,132,44,122},{65,56,26,98,124,133,46,78,35,114,16},{89,17,115,36,57,134,6,47,0,66,79},{106,18,81,8,48,38,27,58,136,99,67,116},{39,125,59,19,9,49,100,90,117,28,68},{17,20,18,23,22,19,25,24,21,16},{17,20,18,23,22,19,25,24,21,16},{17,20,18,23,22,19,25,24,21,16},{17,20,18,23,22,19,25,24,21,16},{17,20,18,23,22,19,25,24,21,16},{17,20,18,23,22,19,25,24,21,16},{65,56,26,98,124,133,46,78,35,114,16},{106,18,81,8,48,38,27,58,136,99,67,116},{39,125,59,19,9,49,100,90,117,28,68},{2,69,102,61,51,29,91,108,119,137},{3,103,128,71,138,83,92,30,63,41},{130,85,22,31,104,73,139,93},{26,31,29,27,34,28,33,30,32},{26,31,29,27,34,28,33,30,32},{26,31,29,27,34,28,33,30,32},{65,56,26,98,124,133,46,78,35,114,16},{89,17,115,36,57,134,6,47,0,66,79},{39,45,36,42,37,38,43,40,35,41,44},{106,18,81,8,48,38,27,58,136,99,67,116},{39,125,59,19,9,49,100,90,117,28,68},{39,45,36,42,37,38,43,40,35,41,44},{39,45,36,42,37,38,43,40,35,41,44},{39,45,36,42,37,38,43,40,35,41,44},{39,45,36,42,37,38,43,40,35,41,44},{39,45,36,42,37,38,43,40,35,41,44},{39,45,36,42,37,38,43,40,35,41,44},{65,56,26,98,124,133,46,78,35,114,16},{89,17,115,36,57,134,6,47,0,66,79},{106,18,81,8,48,38,27,58,136,99,67,116},{39,125,59,19,9,49,100,90,117,28,68},{20,60,107,82,126,40,101,118,50,1,10},{2,69,102,61,51,29,91,108,119,137},{55,51,46,49,48,52,47,50,54,53},{55,51,46,49,48,52,47,50,54,53},{55,51,46,49,48,52,47,50,54,53},{55,87,140,15,96,76,113,132,44,122},{65,56,26,98,124,133,46,78,35,114,16},{89,17,115,36,57,134,6,47,0,66,79},{106,18,81,8,48,38,27,58,136,99,67,116},{39,125,59,19,9,49,100,90,117,28,68},{20,60,107,82,126,40,101,118,50,1,10},{2,69,102,61,51,29,91,108,119,137},{56,59,61,60,57,58,64,63,62},{3,103,128,71,138,83,92,30,63,41},{56,59,61,60,57,58,64,63,62},{65,75,69,77,71,70,73,76,72,66,74,67,68},{65,75,69,77,71,70,73,76,72,66,74,67,68},{65,75,69,77,71,70,73,76,72,66,74,67,68},{65,75,69,77,71,70,73,76,72,66,74,67,68},{65,75,69,77,71,70,73,76,72,66,74,67,68},{65,75,69,77,71,70,73,76,72,66,74,67,68},{65,75,69,77,71,70,73,76,72,66,74,67,68},{65,75,69,77,71,70,73,76,72,66,74,67,68},{65,75,69,77,71,70,73,76,72,66,74,67,68},{65,75,69,77,71,70,73,76,72,66,74,67,68},{65,75,69,77,71,70,73,76,72,66,74,67,68},{65,75,69,77,71,70,73,76,72,66,74,67,68},{65,75,69,77,71,70,73,76,72,66,74,67,68},{65,56,26,98,124,133,46,78,35,114,16},{87,84,85,81,80,82,78,83,86,79,88},{87,84,85,81,80,82,78,83,86,79,88},{106,18,81,8,48,38,27,58,136,99,67,116},{87,84,85,81,80,82,78,83,86,79,88},{87,84,85,81,80,82,78,83,86,79,88},{87,84,85,81,80,82,78,83,86,79,88},{87,84,85,81,80,82,78,83,86,79,88},{87,84,85,81,80,82,78,83,86,79,88},{87,84,85,81,80,82,78,83,86,79,88},{87,84,85,81,80,82,78,83,86,79,88},{89,17,115,36,57,134,6,47,0,66,79},{39,125,59,19,9,49,100,90,117,28,68},{2,69,102,61,51,29,91,108,119,137},{3,103,128,71,138,83,92,30,63,41},{130,85,22,31,104,73,139,93},{89,94,96,91,92,90,95,97,93},{89,94,96,91,92,90,95,97,93},{55,87,140,15,96,76,113,132,44,122},{89,94,96,91,92,90,95,97,93},{65,56,26,98,124,133,46,78,35,114,16},{106,18,81,8,48,38,27,58,136,99,67,116},{39,125,59,19,9,49,100,90,117,28,68},{20,60,107,82,126,40,101,118,50,1,10},{2,69,102,61,51,29,91,108,119,137},{3,103,128,71,138,83,92,30,63,41},{130,85,22,31,104,73,139,93},{106,110,107,111,105,113,112,108,109},{106,18,81,8,48,38,27,58,136,99,67,116},{20,60,107,82,126,40,101,118,50,1,10},{2,69,102,61,51,29,91,108,119,137},{106,110,107,111,105,113,112,108,109},{106,110,107,111,105,113,112,108,109},{106,110,107,111,105,113,112,108,109},{106,110,107,111,105,113,112,108,109},{55,87,140,15,96,76,113,132,44,122},{65,56,26,98,124,133,46,78,35,114,16},{89,17,115,36,57,134,6,47,0,66,79},{106,18,81,8,48,38,27,58,136,99,67,116},{39,125,59,19,9,49,100,90,117,28,68},{20,60,107,82,126,40,101,118,50,1,10},{2,69,102,61,51,29,91,108,119,137},{115,121,123,117,120,118,114,116,122,119},{75,121,43,95,33,86,112,24,14,54},{55,87,140,15,96,76,113,132,44,122},{115,121,123,117,120,118,114,116,122,119},{65,56,26,98,124,133,46,78,35,114,16},{39,125,59,19,9,49,100,90,117,28,68},{20,60,107,82,126,40,101,118,50,1,10},{130,124,125,128,126,127,129,132,131},{3,103,128,71,138,83,92,30,63,41},{130,124,125,128,126,127,129,132,131},{130,124,125,128,126,127,129,132,131},{130,124,125,128,126,127,129,132,131},{55,87,140,15,96,76,113,132,44,122},{65,56,26,98,124,133,46,78,35,114,16},{89,17,115,36,57,134,6,47,0,66,79},{140,133,134,135,138,139,136,141,137},{106,18,81,8,48,38,27,58,136,99,67,116},{2,69,102,61,51,29,91,108,119,137},{3,103,128,71,138,83,92,30,63,41},{130,85,22,31,104,73,139,93},{55,87,140,15,96,76,113,132,44,122},{140,133,134,135,138,139,136,141,137}];
nr_cliques=142;
