projet_m2_wvcp/original_wvcp_dzn/r02.dzn
name="r02";
nr_vertices=142;
nr_edges=1246;
neighborhoods=[{1,2,3,4,5,6,17,36,47,57,66,79,89,115,134},{0,2,3,4,5,10,20,40,50,60,82,101,107,118,126},{0,1,3,4,5,29,51,61,69,91,102,108,119,137},{0,1,2,4,5,30,41,63,71,83,92,103,128,138},{0,1,2,3,5,12,42,72,84,110,129},{0,1,2,3,4,13,23,32,53,64,74,94,111,131},{0,7,8,9,10,11,12,13,14,15,17,36,47,57,66,79,89,115,134},{6,8,9,10,11,12,13,14,15,37,80,105,135},{6,7,9,10,11,12,13,14,15,18,27,38,48,58,67,81,99,106,116,136},{6,7,8,10,11,12,13,14,15,19,28,39,49,59,68,90,100,117,125},{1,6,7,8,9,11,12,13,14,15,20,40,50,60,82,101,107,118,126},{6,7,8,9,10,12,13,14,15,21,52,62,70,109,120,127},{4,6,7,8,9,10,11,13,14,15,42,72,84,110,129},{5,6,7,8,9,10,11,12,14,15,23,32,53,64,74,94,111,131},{6,7,8,9,10,11,12,13,15,24,33,43,54,75,86,95,112,121},{6,7,8,9,10,11,12,13,14,44,55,76,87,96,113,122,132,140},{17,18,19,20,21,22,23,24,25,26,35,46,56,65,78,98,114,124,133},{0,6,16,18,19,20,21,22,23,24,25,36,47,57,66,79,89,115,134},{8,16,17,19,20,21,22,23,24,25,27,38,48,58,67,81,99,106,116,136},{9,16,17,18,20,21,22,23,24,25,28,39,49,59,68,90,100,117,125},{1,10,16,17,18,19,21,22,23,24,25,40,50,60,82,101,107,118,126},{11,16,17,18,19,20,22,23,24,25,52,62,70,109,120,127},{16,17,18,19,20,21,23,24,25,31,73,85,93,104,130,139},{5,13,16,17,18,19,20,21,22,24,25,32,53,64,74,94,111,131},{14,16,17,18,19,20,21,22,23,25,33,43,54,75,86,95,112,121},{16,17,18,19,20,21,22,23,24,34,45,77,88,97,123,141},{16,27,28,29,30,31,32,33,34,35,46,56,65,78,98,114,124,133},{8,18,26,28,29,30,31,32,33,34,38,48,58,67,81,99,106,116,136},{9,19,26,27,29,30,31,32,33,34,39,49,59,68,90,100,117,125},{2,26,27,28,30,31,32,33,34,51,61,69,91,102,108,119,137},{3,26,27,28,29,31,32,33,34,41,63,71,83,92,103,128,138},{22,26,27,28,29,30,32,33,34,73,85,93,104,130,139},{5,13,23,26,27,28,29,30,31,33,34,53,64,74,94,111,131},{14,24,26,27,28,29,30,31,32,34,43,54,75,86,95,112,121},{25,26,27,28,29,30,31,32,33,45,77,88,97,123,141},{16,26,36,37,38,39,40,41,42,43,44,45,46,56,65,78,98,114,124,133},{0,6,17,35,37,38,39,40,41,42,43,44,45,47,57,66,79,89,115,134},{7,35,36,38,39,40,41,42,43,44,45,80,105,135},{8,18,27,35,36,37,39,40,41,42,43,44,45,48,58,67,81,99,106,116,136},{9,19,28,35,36,37,38,40,41,42,43,44,45,49,59,68,90,100,117,125},{1,10,20,35,36,37,38,39,41,42,43,44,45,50,60,82,101,107,118,126},{3,30,35,36,37,38,39,40,42,43,44,45,63,71,83,92,103,128,138},{4,12,35,36,37,38,39,40,41,43,44,45,72,84,110,129},{14,24,33,35,36,37,38,39,40,41,42,44,45,54,75,86,95,112,121},{15,35,36,37,38,39,40,41,42,43,45,55,76,87,96,113,122,132,140},{25,34,35,36,37,38,39,40,41,42,43,44,77,88,97,123,141},{16,26,35,47,48,49,50,51,52,53,54,55,56,65,78,98,114,124,133},{0,6,17,36,46,48,49,50,51,52,53,54,55,57,66,79,89,115,134},{8,18,27,38,46,47,49,50,51,52,53,54,55,58,67,81,99,106,116,136},{9,19,28,39,46,47,48,50,51,52,53,54,55,59,68,90,100,117,125},{1,10,20,40,46,47,48,49,51,52,53,54,55,60,82,101,107,118,126},{2,29,46,47,48,49,50,52,53,54,55,61,69,91,102,108,119,137},{11,21,46,47,48,49,50,51,53,54,55,62,70,109,120,127},{5,13,23,32,46,47,48,49,50,51,52,54,55,64,74,94,111,131},{14,24,33,43,46,47,48,49,50,51,52,53,55,75,86,95,112,121},{15,44,46,47,48,49,50,51,52,53,54,76,87,96,113,122,132,140},{16,26,35,46,57,58,59,60,61,62,63,64,65,78,98,114,124,133},{0,6,17,36,47,56,58,59,60,61,62,63,64,66,79,89,115,134},{8,18,27,38,48,56,57,59,60,61,62,63,64,67,81,99,106,116,136},{9,19,28,39,49,56,57,58,60,61,62,63,64,68,90,100,117,125},{1,10,20,40,50,56,57,58,59,61,62,63,64,82,101,107,118,126},{2,29,51,56,57,58,59,60,62,63,64,69,91,102,108,119,137},{11,21,52,56,57,58,59,60,61,63,64,70,109,120,127},{3,30,41,56,57,58,59,60,61,62,64,71,83,92,103,128,138},{5,13,23,32,53,56,57,58,59,60,61,62,63,74,94,111,131},{16,26,35,46,56,66,67,68,69,70,71,72,73,74,75,76,77,78,98,114,124,133},{0,6,17,36,47,57,65,67,68,69,70,71,72,73,74,75,76,77,79,89,115,134},{8,18,27,38,48,58,65,66,68,69,70,71,72,73,74,75,76,77,81,99,106,116,136},{9,19,28,39,49,59,65,66,67,69,70,71,72,73,74,75,76,77,90,100,117,125},{2,29,51,61,65,66,67,68,70,71,72,73,74,75,76,77,91,102,108,119,137},{11,21,52,62,65,66,67,68,69,71,72,73,74,75,76,77,109,120,127},{3,30,41,63,65,66,67,68,69,70,72,73,74,75,76,77,83,92,103,128,138},{4,12,42,65,66,67,68,69,70,71,73,74,75,76,77,84,110,129},{22,31,65,66,67,68,69,70,71,72,74,75,76,77,85,93,104,130,139},{5,13,23,32,53,64,65,66,67,68,69,70,71,72,73,75,76,77,94,111,131},{14,24,33,43,54,65,66,67,68,69,70,71,72,73,74,76,77,86,95,112,121},{15,44,55,65,66,67,68,69,70,71,72,73,74,75,77,87,96,113,122,132,140},{25,34,45,65,66,67,68,69,70,71,72,73,74,75,76,88,97,123,141},{16,26,35,46,56,65,79,80,81,82,83,84,85,86,87,88,98,114,124,133},{0,6,17,36,47,57,66,78,80,81,82,83,84,85,86,87,88,89,115,134},{7,37,78,79,81,82,83,84,85,86,87,88,105,135},{8,18,27,38,48,58,67,78,79,80,82,83,84,85,86,87,88,99,106,116,136},{1,10,20,40,50,60,78,79,80,81,83,84,85,86,87,88,101,107,118,126},{3,30,41,63,71,78,79,80,81,82,84,85,86,87,88,92,103,128,138},{4,12,42,72,78,79,80,81,82,83,85,86,87,88,110,129},{22,31,73,78,79,80,81,82,83,84,86,87,88,93,104,130,139},{14,24,33,43,54,75,78,79,80,81,82,83,84,85,87,88,95,112,121},{15,44,55,76,78,79,80,81,82,83,84,85,86,88,96,113,122,132,140},{25,34,45,77,78,79,80,81,82,83,84,85,86,87,97,123,141},{0,6,17,36,47,57,66,79,90,91,92,93,94,95,96,97,115,134},{9,19,28,39,49,59,68,89,91,92,93,94,95,96,97,100,117,125},{2,29,51,61,69,89,90,92,93,94,95,96,97,102,108,119,137},{3,30,41,63,71,83,89,90,91,93,94,95,96,97,103,128,138},{22,31,73,85,89,90,91,92,94,95,96,97,104,130,139},{5,13,23,32,53,64,74,89,90,91,92,93,95,96,97,111,131},{14,24,33,43,54,75,86,89,90,91,92,93,94,96,97,112,121},{15,44,55,76,87,89,90,91,92,93,94,95,97,113,122,132,140},{25,34,45,77,88,89,90,91,92,93,94,95,96,123,141},{16,26,35,46,56,65,78,99,100,101,102,103,104,114,124,133},{8,18,27,38,48,58,67,81,98,100,101,102,103,104,106,116,136},{9,19,28,39,49,59,68,90,98,99,101,102,103,104,117,125},{1,10,20,40,50,60,82,98,99,100,102,103,104,107,118,126},{2,29,51,61,69,91,98,99,100,101,103,104,108,119,137},{3,30,41,63,71,83,92,98,99,100,101,102,104,128,138},{22,31,73,85,93,98,99,100,101,102,103,130,139},{7,37,80,106,107,108,109,110,111,112,113,135},{8,18,27,38,48,58,67,81,99,105,107,108,109,110,111,112,113,116,136},{1,10,20,40,50,60,82,101,105,106,108,109,110,111,112,113,118,126},{2,29,51,61,69,91,102,105,106,107,109,110,111,112,113,119,137},{11,21,52,62,70,105,106,107,108,110,111,112,113,120,127},{4,12,42,72,84,105,106,107,108,109,111,112,113,129},{5,13,23,32,53,64,74,94,105,106,107,108,109,110,112,113,131},{14,24,33,43,54,75,86,95,105,106,107,108,109,110,111,113,121},{15,44,55,76,87,96,105,106,107,108,109,110,111,112,122,132,140},{16,26,35,46,56,65,78,98,115,116,117,118,119,120,121,122,123,124,133},{0,6,17,36,47,57,66,79,89,114,116,117,118,119,120,121,122,123,134},{8,18,27,38,48,58,67,81,99,106,114,115,117,118,119,120,121,122,123,136},{9,19,28,39,49,59,68,90,100,114,115,116,118,119,120,121,122,123,125},{1,10,20,40,50,60,82,101,107,114,115,116,117,119,120,121,122,123,126},{2,29,51,61,69,91,102,108,114,115,116,117,118,120,121,122,123,137},{11,21,52,62,70,109,114,115,116,117,118,119,121,122,123,127},{14,24,33,43,54,75,86,95,112,114,115,116,117,118,119,120,122,123},{15,44,55,76,87,96,113,114,115,116,117,118,119,120,121,123,132,140},{25,34,45,77,88,97,114,115,116,117,118,119,120,121,122,141},{16,26,35,46,56,65,78,98,114,125,126,127,128,129,130,131,132,133},{9,19,28,39,49,59,68,90,100,117,124,126,127,128,129,130,131,132},{1,10,20,40,50,60,82,101,107,118,124,125,127,128,129,130,131,132},{11,21,52,62,70,109,120,124,125,126,128,129,130,131,132},{3,30,41,63,71,83,92,103,124,125,126,127,129,130,131,132,138},{4,12,42,72,84,110,124,125,126,127,128,130,131,132},{22,31,73,85,93,104,124,125,126,127,128,129,131,132,139},{5,13,23,32,53,64,74,94,111,124,125,126,127,128,129,130,132},{15,44,55,76,87,96,113,122,124,125,126,127,128,129,130,131,140},{16,26,35,46,56,65,78,98,114,124,134,135,136,137,138,139,140,141},{0,6,17,36,47,57,66,79,89,115,133,135,136,137,138,139,140,141},{7,37,80,105,133,134,136,137,138,139,140,141},{8,18,27,38,48,58,67,81,99,106,116,133,134,135,137,138,139,140,141},{2,29,51,61,69,91,102,108,119,133,134,135,136,138,139,140,141},{3,30,41,63,71,83,92,103,128,133,134,135,136,137,139,140,141},{22,31,73,85,93,104,130,133,134,135,136,137,138,140,141},{15,44,55,76,87,96,113,122,132,133,134,135,136,137,138,139,141},{25,34,45,77,88,97,123,133,134,135,136,137,138,139,140}];
weights=[359,265,679,682,501,280,444,501,570,588,223,523,631,464,266,567,213,692,649,603,678,242,634,647,278,432,695,458,402,519,346,579,298,384,404,397,566,514,463,696,441,277,549,462,248,590,533,360,504,516,282,571,449,220,255,702,699,542,438,618,577,595,282,296,319,704,322,287,225,657,530,536,348,528,318,669,508,618,529,229,574,617,553,467,663,637,357,686,207,697,444,509,446,247,642,420,531,371,693,363,470,352,651,676,549,450,676,567,315,286,636,554,319,361,262,605,258,429,315,237,371,596,244,516,650,631,538,489,600,341,682,255,324,607,536,532,388,236,498,483,637,338];
